resources = [2,1,1,2,2,2];
horizon = 10;
norders = 6;
dist = [100,30,20,15,20,35];
weight = [HEAVY,LIGHT,LIGHT,ULTRA,MEDIUM,LIGHT];
packtime = [1,1,1,3];
available = [0,0,3,0,7,5];
value = [2,5,3,5,10,8];
ndrones = 4;
arrival = [0,0,6,4];
charge  = [2,0,0,10];